(set-logic QF_S)
(declare-fun var0 () String)
(declare-fun var1 () Int)
(declare-fun var2 () String)
(declare-fun var3 () Int)
(declare-fun var4 () Int)
(declare-fun var5 () Int)
(declare-fun var6 () String)
(declare-fun var7 () String)
(assert (str.suffixof (str.substr var0 159 var1) (str.substr var2 var3 var3)))
(assert (> var4 var5))
(assert (str.contains (str.substr var6 var1 var5) (str.replace var7 var2 var2)))
(assert (str.prefixof var6 var6))
(check-sat)